CMPL model generation - running

CMPL version: 1.11.0
Authors: Thomas Schleiff, Mike Steglich
Distributed under the GPLv3 

create model instance ...
write model instance ...
CMPL model generation - finished

Solver - running


Welcome to IBM(R) ILOG(R) CPLEX(R) Interactive Optimizer 12.7.1.0
  with Simplex, Mixed Integer & Barrier Optimizers
5725-A06 5725-A29 5724-Y48 5724-Y49 5724-Y54 5724-Y55 5655-Y21
Copyright IBM Corp. 1988, 2017.  All Rights Reserved.

Type 'help' for a list of available commands.
Type 'help' followed by a command name for more
information on commands.

CPLEX> Specified objective sense: MINIMIZE
Selected objective  name:  line[1]
Selected RHS        name:  RHS
Selected bound      name:  BOUND
Problem '/tmp/cmpl.T23715.mps' read.
Read time = 0.06 sec. (10.11 ticks)
CPLEX> CPXPARAM_Read_APIEncoding                        "UTF-8"
Tried aggregator 3 times.
MIP Presolve eliminated 24076 rows and 37719 columns.
MIP Presolve modified 425 coefficients.
Aggregator did 719 substitutions.
Reduced MIP has 3127 rows, 4017 columns, and 11899 nonzeros.
Reduced MIP has 3807 binaries, 0 generals, 0 SOSs, and 0 indicators.
Presolve time = 0.07 sec. (50.03 ticks)
Found incumbent of value 372.776402 after 0.12 sec. (78.11 ticks)
Probing fixed 6 vars, tightened 0 bounds.
Probing time = 0.01 sec. (5.16 ticks)
Tried aggregator 1 time.
MIP Presolve eliminated 0 rows and 6 columns.
MIP Presolve modified 28 coefficients.
Reduced MIP has 3127 rows, 4011 columns, and 11887 nonzeros.
Reduced MIP has 4011 binaries, 0 generals, 0 SOSs, and 0 indicators.
Presolve time = 0.01 sec. (10.00 ticks)
Probing time = 0.01 sec. (2.83 ticks)
Clique table members: 7345.
MIP emphasis: balance optimality and feasibility.
MIP search method: dynamic search.
Parallel mode: none, using 1 thread.
Root relaxation solution time = 0.01 sec. (5.47 ticks)

        Nodes                                         Cuts/
   Node  Left     Objective  IInf  Best Integer    Best Bound    ItCnt     Gap

*     0+    0                          372.7764      -48.1188           112.91%
      0     0       68.4901    20      372.7764       68.4901      102   81.63%
*     0+    0                           84.6349       68.4901            19.08%
*     0+    0                           68.9473       68.4901             0.66%
*     0     0      integral     0       68.9248      Cuts: 12      108    0.00%
      0     0        cutoff             68.9248       68.9248      108    0.00%
Elapsed time = 0.19 sec. (127.95 ticks, tree = 0.01 MB, solutions = 4)

Cover cuts applied:  8
Gomory fractional cuts applied:  4

Root node processing (before b&c):
  Real time             =    0.19 sec. (130.06 ticks)
Sequential b&c:
  Real time             =    0.00 sec. (0.00 ticks)
                          ------------
Total (root+branch&cut) =    0.19 sec. (130.06 ticks)

Solution pool: 4 solutions saved.

MIP - Integer optimal solution:  Objective =  6.8924831000e+01
Solution time =    0.19 sec.  Iterations = 108  Nodes = 0
Deterministic time = 130.18 ticks  (674.10 ticks/sec)

CPLEX> Incumbent solution written to file '/tmp/cmpl.T23715.gsol'.
CPLEX> 
CMPL: Time used for model generation: 1 seconds
CMPL: Time used for solving the model: 1 seconds


Solution written to ASCII file: results/output_generated_conf_0.2/2017-10-02-5/fair-nonlinear.sol

Solver - finished
